119604
70,19,76,57,73,6,26,32,10,15,37,34,27,58,52,7,82,5,60,14,68,24,41,42,71,50,55,16,39,43,67,21,4,47,17,36,12,72,63,0,9,28,13,25,35,65,75,66,69,61,79,44,45,53,20,18,23,30,64,49,3,62,38,51,40,77,78,29,1,80,59,46,48,33,56,2,11,22,54,74,81,31,8,70